(set-logic QF_BV)
(declare-fun _substvar_3215_ () (_ BitVec 32))
(declare-fun _substvar_3088_ () (_ BitVec 32))
(declare-fun _substvar_3318_ () (_ BitVec 32))
(declare-fun _substvar_3090_ () (_ BitVec 32))
(declare-fun _substvar_3105_ () (_ BitVec 32))
(declare-fun _substvar_2860_ () (_ BitVec 8))
(declare-fun _substvar_3221_ () (_ BitVec 32))
(assert (let ((?v_375 (bvadd _substvar_3221_ (_ bv8 32)))) (let ( (?v_241 (bvadd _substvar_3215_ ?v_375))) (let ((?v_306 (bvsub ?v_241 (_ bv524288 32)))) (let ( (?v_363 (bvadd _substvar_3221_ (_ bv141164620 32)))) (and true true true true true true true true true true true true true true true true true true true true true true true true true true true true true true true true true true true true true true true true true true true true true true true true true true true true true true true true true (= _substvar_3105_ (bvor (bvshl (bvor (_ bv0 32) ((_ zero_extend 24) _substvar_2860_)) (_ bv8 32)) (_ bv0 32))) true true true true true true true true true true true true true true true true true true true true true true true true true true true true true true true true true true true true true true true true true true true true true true true true true true true true true true true true true true true true true true true true true true true true true true true true true true true true true true true true true true true true true true true true true true true true true true true true true true true true true true true true true true true true true true true true true true true true true true true true true true true true true true true true true true true true true true true true true true true true true true true true true true true true true true true true true true true true true true true true true true true true true true true true true true true true true true true true true true true true true true true true true true true true true true true true true true true true true true true true true true true true true true true true true true true true true true true true true true true true true true true true true true true true true true true true true true true true true true true true true true true true true true true true true true true true true true true true true true true true true true true true true true true true true true true true true true true true true true true true true true true true true true true true true true true true true true true true true true true true true true true true true true true true true true true true true true true true true true true true true true true true true true true true true true true true true true true true true true true true true true true true true true true true true true true true true true true true true true true true true true true true true true true true true true true true true true true true true true true true true true true true true true true true true true true true true true true true true true true true true true true true true true true true true true true true true true true true true true true true true true true true true true true true true true true true true true true true true true true true true true true true true true true true true true true true true true true true true true true true true true true true true true true true true true true true true true true true true true true true true true true true true true true true true true true true true true true true true true true true true true true true true true true true true true true true true true true true true true true true true true true true true true true true true true true true true true true true true true true true true true true true true true true true true true true true true true true true true true true true true true true true true true true true true true true true true true true true true true true true true true true true true true true true true true true true true true true true true true true true true true true true true true true true true true true true true true true true true true true true true true true true true true true true true true true true true true true true true true true true true true true true true true true true true true true true true true true true true true true true true true true true true true true true true true true true true true true true true true true true true true true true true true true true true true true true true true true true true true true true true true true true true true true true true true true true true true true true true true true true true true true true true true true true true true true true true true true true true true true true true true true true true true true true true true true true true true true true true true true true true true true true true true true true true true true true true true true true true true true true true true true true true true true true true true true true true true true true true true true true true true true true true true true true true true true true true true true (bvult ?v_306 (_ bv49152 32)) (not (= ?v_306 (_ bv0 32))) true true true (bvule (_ bv139327808 32) ?v_363) (bvule (_ bv139327920 32) ?v_363) true true true true true true true true true true true true true true true true true true true true true true true true true true true true true true true true true true true (bvule (bvadd _substvar_3105_ ?v_375) (_ bv0 32)) true true true true true true true true true true true true true true true true true true true true true true true true true (bvule ?v_241 _substvar_3088_) (bvule ?v_241 _substvar_3090_) (bvult ?v_241 _substvar_3090_) (bvule _substvar_3088_ ?v_241) (bvult ?v_241 (_ bv573440 32)) (not (= ?v_241 (_ bv4294967295 32))) (not (= ?v_241 (_ bv65536 32))) (bvule (_ bv65536 32) ?v_241) true (bvule ?v_241 _substvar_3318_) (bvult (_ bv0 32) _substvar_3221_) (bvule _substvar_3221_ (_ bv65536 32)) (bvult _substvar_3221_ (_ bv65536 32)) true (bvule _substvar_3221_ _substvar_3318_) true true true true true true true true true true true true true true true true true true true true true true true true true true true (bvule ?v_375 (_ bv65536 32)) (bvult ?v_375 (_ bv65536 32)) true true true true true true true true true true))))))
(check-sat)
(exit)
